NAME: instance_69
TYPE: TSP
DIMENSION: 20
EDGE_WEIGHT_TYPE: EUC_2D
NODE_COORD_SECTION
0 20.07 56.00
1 30.98 0.21
2 28.89 46.60
3 92.18 8.27
4 17.03 21.63
5 50.88 34.84
6 65.11 75.24
7 29.54 32.74
8 48.66 13.13
9 36.68 77.16
10 31.31 61.31
11 73.12 45.01
12 36.70 36.61
13 9.19 79.25
14 98.94 22.57
15 82.71 76.83
16 8.17 45.35
17 47.91 68.27
18 30.49 68.27
19 96.28 60.90
EOF
